<number of tasks>
100

<cycle time>
1000

<order strength>
0.601


<task times>
1 41
2 104
3 58
4 495
5 61
6 147
7 333
8 475
9 176
10 86
11 55
12 60
13 158
14 39
15 125
16 507
17 458
18 50
19 56
20 106
21 115
22 57
23 114
24 140
25 73
26 463
27 229
28 51
29 390
30 218
31 496
32 165
33 75
34 155
35 163
36 186
37 567
38 275
39 202
40 481
41 127
42 40
43 150
44 367
45 242
46 168
47 293
48 460
49 106
50 322
51 222
52 282
53 267
54 266
55 455
56 24
57 48
58 126
59 253
60 311
61 151
62 625
63 441
64 154
65 170
66 137
67 79
68 350
69 334
70 455
71 131
72 180
73 90
74 26
75 349
76 522
77 166
78 247
79 156
80 154
81 127
82 251
83 119
84 26
85 165
86 90
87 246
88 496
89 155
90 439
91 464
92 263
93 169
94 288
95 54
96 86
97 134
98 106
99 144
100 46

<precedence relations>
1,14
2,14
3,14
4,5
4,6
4,7
4,8
4,9
4,10
4,11
5,59
6,59
7,91
8,14
9,14
10,14
11,12
11,13
11,15
11,16
11,17
11,43
12,59
13,91
14,19
14,20
14,21
14,22
14,23
14,24
14,25
14,26
14,27
14,28
14,29
15,32
15,50
15,51
16,18
16,30
17,18
17,30
17,33
17,34
17,35
17,44
18,59
19,32
19,33
19,35
19,43
20,37
21,44
21,71
22,33
22,39
22,40
22,71
22,77
23,31
23,32
23,33
23,35
23,49
24,31
24,34
24,35
24,41
24,43
25,31
25,32
25,49
25,50
25,51
26,31
26,32
26,41
26,42
27,31
27,33
27,53
27,57
27,58
27,64
28,35
28,36
28,40
28,41
28,43
29,31
29,32
29,33
29,35
29,36
30,31
30,32
30,42
30,45
31,59
32,70
33,76
34,76
35,76
36,39
36,42
37,38
37,39
37,40
37,41
37,43
38,59
39,91
40,70
41,44
41,45
41,46
41,47
41,48
42,46
42,47
42,48
43,44
43,45
43,46
43,47
44,59
45,59
46,59
47,49
47,50
47,51
48,49
48,51
48,62
48,65
49,59
50,52
50,53
50,54
50,55
50,56
50,57
51,52
51,54
51,55
51,58
51,63
52,59
53,59
54,59
55,70
56,60
56,64
56,65
57,61
57,62
57,63
57,76
57,77
57,78
58,59
58,71
58,85
59,66
59,67
59,68
59,69
60,70
61,70
62,70
63,91
64,71
64,77
64,85
65,89
65,90
66,76
67,77
68,77
68,78
68,90
69,77
70,72
70,73
70,74
70,75
71,78
71,86
72,100
73,93
73,94
74,85
75,85
76,79
76,80
76,81
76,82
76,83
76,84
77,93
77,94
78,88
79,88
79,95
80,87
81,93
82,86
82,94
83,89
84,89
84,90
85,87
86,91
87,88
87,89
87,90
88,91
89,100
90,92
90,93
90,94
90,95
91,96
91,97
91,98
91,99
94,100

<end>
